\ENCODING=ISO-8859-1
\Problem name: ilog.cplex

Maximize
 obj: y0,1,0 + y0,1,1 + y0,1,2 + x1,2,0 + x1,2,1 + x1,2,2 + x1,2,3 + y2,3,0
      + y2,3,1 + y2,3,2 + x3,4,0 + x3,4,1 + x3,4,2 + x3,4,3 + y4,5,0 + y4,5,1
      + y4,5,2 + x5,6,0 + x5,6,1 + x5,6,2 + x5,6,3 + y6,7,0 + y6,7,1 + y6,7,2
      + f0,0 + x0,1,0 + f1,0 + y1,2,0 + f2,0 + x2,3,0 + f3,0 + y3,4,0 + f4,0
      + x4,5,0 + f5,0 + y5,6,0 + f6,0 + x6,7,0 + f7,0 + f0,1 + x0,1,1 + f1,1
      + y1,2,1 + f2,1 + x2,3,1 + f3,1 + y3,4,1 + f4,1 + x4,5,1 + f5,1 + y5,6,1
      + f6,1 + x6,7,1 + f7,1 + f0,2 + x0,1,2 + f1,2 + y1,2,2 + f2,2 + x2,3,2
      + f3,2 + y3,4,2 + f4,2 + x4,5,2 + f5,2 + y5,6,2 + f6,2 + x6,7,2 + f7,2
      + f0,3 + x0,1,3 + f1,3 + f2,3 + x2,3,3 + f3,3 + f4,3 + x4,5,3 + f5,3
      + f6,3 + x6,7,3 + f7,3
Subject To
 c101_010: y0,1,0  = 0
 c101_011: y0,1,1  = 0
 c101_012: y0,1,2  = 0
 c100_120: x1,2,0  = 0
 c100_121: x1,2,1  = 0
 c100_122: x1,2,2  = 0
 c100_123: x1,2,3  = 0
 c101_230: y2,3,0  = 0
 c101_231: y2,3,1  = 0
 c101_232: y2,3,2  = 0
 c100_340: x3,4,0  = 0
 c100_341: x3,4,1  = 0
 c100_342: x3,4,2  = 0
 c100_343: x3,4,3  = 0
 c101_450: y4,5,0  = 0
 c101_451: y4,5,1  = 0
 c101_452: y4,5,2  = 0
 c100_560: x5,6,0  = 0
 c100_561: x5,6,1  = 0
 c100_562: x5,6,2  = 0
 c100_563: x5,6,3  = 0
 c101_670: y6,7,0  = 0
 c101_671: y6,7,1  = 0
 c101_672: y6,7,2  = 0
 c1_00:    s0 - f0,0 - x0,1,0  = 0
 c15_00:   s0 <= 1
 c1_10:    x0,1,0 + s1 - f1,0 - y1,2,0  = 0
 c15_10:   x0,1,0 + s1 <= 1
 c1_20:    s2 - f2,0 - x2,3,0  = 0
 c15_20:   s2 <= 1
 c1_30:    x2,3,0 + s3 - f3,0 - y3,4,0  = 0
 c15_30:   x2,3,0 + s3 <= 1
 c1_40:    s4 - f4,0 - x4,5,0  = 0
 c15_40:   s4 <= 1
 c1_50:    x4,5,0 + s5 - f5,0 - y5,6,0  = 0
 c15_50:   x4,5,0 + s5 <= 1
 c1_60:    s6 - f6,0 - x6,7,0  = 0
 c15_60:   s6 <= 1
 c1_70:    x6,7,0 + s7 - f7,0  = 0
 c15_70:   x6,7,0 + s7 <= 1
 c1_01:    - f0,1 - x0,1,1  = 0
 c15_01:   <= 1
 c1_11:    x0,1,1 - f1,1 - y1,2,1  = 0
 c15_11:   x0,1,1 <= 1
 c1_21:    y1,2,0 - f2,1 - x2,3,1  = 0
 c15_21:   y1,2,0 <= 1
 c1_31:    x2,3,1 - f3,1 - y3,4,1  = 0
 c15_31:   x2,3,1 <= 1
 c1_41:    y3,4,0 - f4,1 - x4,5,1  = 0
 c15_41:   y3,4,0 <= 1
 c1_51:    x4,5,1 - f5,1 - y5,6,1  = 0
 c15_51:   x4,5,1 <= 1
 c1_61:    y5,6,0 - f6,1 - x6,7,1  = 0
 c15_61:   y5,6,0 <= 1
 c1_71:    x6,7,1 - f7,1  = 0
 c15_71:   x6,7,1 <= 1
 c1_02:    - f0,2 - x0,1,2  = 0
 c15_02:   <= 1
 c1_12:    x0,1,2 - f1,2 - y1,2,2  = 0
 c15_12:   x0,1,2 <= 1
 c1_22:    y1,2,1 - f2,2 - x2,3,2  = 0
 c15_22:   y1,2,1 <= 1
 c1_32:    x2,3,2 - f3,2 - y3,4,2  = 0
 c15_32:   x2,3,2 <= 1
 c1_42:    y3,4,1 - f4,2 - x4,5,2  = 0
 c15_42:   y3,4,1 <= 1
 c1_52:    x4,5,2 - f5,2 - y5,6,2  = 0
 c15_52:   x4,5,2 <= 1
 c1_62:    y5,6,1 - f6,2 - x6,7,2  = 0
 c15_62:   y5,6,1 <= 1
 c1_72:    x6,7,2 - f7,2  = 0
 c15_72:   x6,7,2 <= 1
 c1_03:    - f0,3 - x0,1,3  = 0
 c15_03:   <= 1
 c1_13:    x0,1,3 - f1,3  = 0
 c15_13:   x0,1,3 <= 1
 c1_23:    y1,2,2 - f2,3 - x2,3,3  = 0
 c15_23:   y1,2,2 <= 1
 c1_33:    x2,3,3 - f3,3  = 0
 c15_33:   x2,3,3 <= 1
 c1_43:    y3,4,2 - f4,3 - x4,5,3  = 0
 c15_43:   y3,4,2 <= 1
 c1_53:    x4,5,3 - f5,3  = 0
 c15_53:   x4,5,3 <= 1
 c1_63:    y5,6,2 - f6,3 - x6,7,3  = 0
 c15_63:   y5,6,2 <= 1
 c1_73:    x6,7,3 - f7,3  = 0
 c15_73:   x6,7,3 <= 1
 c2:       s0 + s1 + s2 + s3 + s4 + s5 + s6 + s7  = 1
 c3:       f0,0 + f1,0 + f2,0 + f3,0 + f4,0 + f5,0 + f6,0 + f7,0 + f0,1 + f1,1
           + f2,1 + f3,1 + f4,1 + f5,1 + f6,1 + f7,1 + f0,2 + f1,2 + f2,2
           + f3,2 + f4,2 + f5,2 + f6,2 + f7,2 + f0,3 + f1,3 + f2,3 + f3,3
           + f4,3 + f5,3 + f6,3 + f7,3  = 1
 c4_0:     165 y0,1,0 + 135 x1,2,0 + 100 y2,3,0 + 150 x3,4,0 + 55 y4,5,0
           + 130 x5,6,0 + 110 y6,7,0 + 165 f0,0 + 165 x0,1,0 + 135 f1,0
           + 135 y1,2,0 + 100 f2,0 + 100 x2,3,0 + 150 f3,0 + 150 y3,4,0
           + 55 f4,0 + 55 x4,5,0 + 130 f5,0 + 130 y5,6,0 + 110 f6,0
           + 110 x6,7,0 + 60 f7,0 <= 540
 c4_1:     165 y0,1,1 + 135 x1,2,1 + 100 y2,3,1 + 150 x3,4,1 + 55 y4,5,1
           + 130 x5,6,1 + 110 y6,7,1 + 165 f0,1 + 165 x0,1,1 + 135 f1,1
           + 135 y1,2,1 + 100 f2,1 + 100 x2,3,1 + 150 f3,1 + 150 y3,4,1
           + 55 f4,1 + 55 x4,5,1 + 130 f5,1 + 130 y5,6,1 + 110 f6,1
           + 110 x6,7,1 + 60 f7,1 <= 540
 c4_2:     165 y0,1,2 + 135 x1,2,2 + 100 y2,3,2 + 150 x3,4,2 + 55 y4,5,2
           + 130 x5,6,2 + 110 y6,7,2 + 165 f0,2 + 165 x0,1,2 + 135 f1,2
           + 135 y1,2,2 + 100 f2,2 + 100 x2,3,2 + 150 f3,2 + 150 y3,4,2
           + 55 f4,2 + 55 x4,5,2 + 130 f5,2 + 130 y5,6,2 + 110 f6,2
           + 110 x6,7,2 + 60 f7,2 <= 540
 c4_3:     135 x1,2,3 + 150 x3,4,3 + 130 x5,6,3 + 165 f0,3 + 165 x0,1,3
           + 135 f1,3 + 100 f2,3 + 100 x2,3,3 + 150 f3,3 + 55 f4,3 + 55 x4,5,3
           + 130 f5,3 + 110 f6,3 + 110 x6,7,3 + 60 f7,3 <= 540
 c5_1:     4940 y0,1,0 + 6380 y2,3,0 + 8055 y4,5,0 + 9155 y6,7,0 - 4775 s0
           + 4940 f0,0 - 5280 s1 + 5415 f1,0 + 5415 y1,2,0 - 6280 s2
           + 6380 f2,0 - 6845 s3 + 6995 f3,0 + 6995 y3,4,0 - 8000 s4
           + 8055 f4,0 - 8100 s5 + 8230 f5,0 + 8230 y5,6,0 - 9045 s6
           + 9155 f6,0 - 9405 s7 + 9465 f7,0 - 10080 x90 <= -9330
 c5_2:     4940 y0,1,0 + 6380 y2,3,0 + 8055 y4,5,0 + 9155 y6,7,0 - 4775 s0
           + 4940 f0,0 - 5280 s1 + 5415 f1,0 + 5415 y1,2,0 - 6280 s2
           + 6380 f2,0 - 6845 s3 + 6995 f3,0 + 6995 y3,4,0 - 8000 s4
           + 8055 f4,0 - 8100 s5 + 8230 f5,0 + 8230 y5,6,0 - 9045 s6
           + 9155 f6,0 - 9405 s7 + 9465 f7,0 - 10080 x90 >= -10080
 c6_11:    - 5280 y0,1,0 + 4940 y0,1,1 - 6845 y2,3,0 + 6380 y2,3,1
           - 8100 y4,5,0 + 8055 y4,5,1 - 9405 y6,7,0 + 9155 y6,7,1
           - 6280 y1,2,0 - 8000 y3,4,0 - 9045 y5,6,0 + 4940 f0,1 + 5415 f1,1
           + 5415 y1,2,1 + 6380 f2,1 + 6995 f3,1 + 6995 y3,4,1 + 8055 f4,1
           + 8230 f5,1 + 8230 y5,6,1 + 9155 f6,1 + 9465 f7,1 - 10080 x91
           <= -9330
 c6_21:    - 5280 y0,1,0 + 4940 y0,1,1 - 6845 y2,3,0 + 6380 y2,3,1
           - 8100 y4,5,0 + 8055 y4,5,1 - 9405 y6,7,0 + 9155 y6,7,1
           - 6280 y1,2,0 - 8000 y3,4,0 - 9045 y5,6,0 + 4940 f0,1 + 5415 f1,1
           + 5415 y1,2,1 + 6380 f2,1 + 6995 f3,1 + 6995 y3,4,1 + 8055 f4,1
           + 8230 f5,1 + 8230 y5,6,1 + 9155 f6,1 + 9465 f7,1 - 10080 x91
           >= -10080
 c7_11:    4940 y0,1,1 + 6380 y2,3,1 + 8055 y4,5,1 + 9155 y6,7,1 - 4775 s0
           - 5280 s1 - 6280 s2 - 6845 s3 - 8000 s4 - 8100 s5 - 9045 s6
           - 9405 s7 + 4940 f0,1 + 5415 f1,1 + 5415 y1,2,1 + 6380 f2,1
           + 6995 f3,1 + 6995 y3,4,1 + 8055 f4,1 + 8230 f5,1 + 8230 y5,6,1
           + 9155 f6,1 + 9465 f7,1 - 10080 x92 <= -4320
 c7_21:    4940 y0,1,1 + 6380 y2,3,1 + 8055 y4,5,1 + 9155 y6,7,1 - 4775 s0
           - 5280 s1 - 6280 s2 - 6845 s3 - 8000 s4 - 8100 s5 - 9045 s6
           - 9405 s7 + 4940 f0,1 + 5415 f1,1 + 5415 y1,2,1 + 6380 f2,1
           + 6995 f3,1 + 6995 y3,4,1 + 8055 f4,1 + 8230 f5,1 + 8230 y5,6,1
           + 9155 f6,1 + 9465 f7,1 - 10080 x92 >= -10080
 c6_12:    - 5280 y0,1,1 + 4940 y0,1,2 - 6845 y2,3,1 + 6380 y2,3,2
           - 8100 y4,5,1 + 8055 y4,5,2 - 9405 y6,7,1 + 9155 y6,7,2
           - 6280 y1,2,1 - 8000 y3,4,1 - 9045 y5,6,1 + 4940 f0,2 + 5415 f1,2
           + 5415 y1,2,2 + 6380 f2,2 + 6995 f3,2 + 6995 y3,4,2 + 8055 f4,2
           + 8230 f5,2 + 8230 y5,6,2 + 9155 f6,2 + 9465 f7,2 - 10080 x93
           <= -9330
 c6_22:    - 5280 y0,1,1 + 4940 y0,1,2 - 6845 y2,3,1 + 6380 y2,3,2
           - 8100 y4,5,1 + 8055 y4,5,2 - 9405 y6,7,1 + 9155 y6,7,2
           - 6280 y1,2,1 - 8000 y3,4,1 - 9045 y5,6,1 + 4940 f0,2 + 5415 f1,2
           + 5415 y1,2,2 + 6380 f2,2 + 6995 f3,2 + 6995 y3,4,2 + 8055 f4,2
           + 8230 f5,2 + 8230 y5,6,2 + 9155 f6,2 + 9465 f7,2 - 10080 x93
           >= -10080
 c7_12:    4940 y0,1,2 + 6380 y2,3,2 + 8055 y4,5,2 + 9155 y6,7,2 - 4775 s0
           - 5280 s1 - 6280 s2 - 6845 s3 - 8000 s4 - 8100 s5 - 9045 s6
           - 9405 s7 + 4940 f0,2 + 5415 f1,2 + 5415 y1,2,2 + 6380 f2,2
           + 6995 f3,2 + 6995 y3,4,2 + 8055 f4,2 + 8230 f5,2 + 8230 y5,6,2
           + 9155 f6,2 + 9465 f7,2 - 10080 x94 <= -4320
 c7_22:    4940 y0,1,2 + 6380 y2,3,2 + 8055 y4,5,2 + 9155 y6,7,2 - 4775 s0
           - 5280 s1 - 6280 s2 - 6845 s3 - 8000 s4 - 8100 s5 - 9045 s6
           - 9405 s7 + 4940 f0,2 + 5415 f1,2 + 5415 y1,2,2 + 6380 f2,2
           + 6995 f3,2 + 6995 y3,4,2 + 8055 f4,2 + 8230 f5,2 + 8230 y5,6,2
           + 9155 f6,2 + 9465 f7,2 - 10080 x94 >= -10080
 c6_13:    - 5280 y0,1,2 - 6845 y2,3,2 - 8100 y4,5,2 - 9405 y6,7,2
           - 6280 y1,2,2 - 8000 y3,4,2 - 9045 y5,6,2 + 4940 f0,3 + 5415 f1,3
           + 6380 f2,3 + 6995 f3,3 + 8055 f4,3 + 8230 f5,3 + 9155 f6,3
           + 9465 f7,3 - 10080 x95 <= -9330
 c6_23:    - 5280 y0,1,2 - 6845 y2,3,2 - 8100 y4,5,2 - 9405 y6,7,2
           - 6280 y1,2,2 - 8000 y3,4,2 - 9045 y5,6,2 + 4940 f0,3 + 5415 f1,3
           + 6380 f2,3 + 6995 f3,3 + 8055 f4,3 + 8230 f5,3 + 9155 f6,3
           + 9465 f7,3 - 10080 x95 >= -10080
 c7_13:    - 4775 s0 - 5280 s1 - 6280 s2 - 6845 s3 - 8000 s4 - 8100 s5
           - 9045 s6 - 9405 s7 + 4940 f0,3 + 5415 f1,3 + 6380 f2,3 + 6995 f3,3
           + 8055 f4,3 + 8230 f5,3 + 9155 f6,3 + 9465 f7,3 - 10080 x96 <= -4320
 c7_23:    - 4775 s0 - 5280 s1 - 6280 s2 - 6845 s3 - 8000 s4 - 8100 s5
           - 9045 s6 - 9405 s7 + 4940 f0,3 + 5415 f1,3 + 6380 f2,3 + 6995 f3,3
           + 8055 f4,3 + 8230 f5,3 + 9155 f6,3 + 9465 f7,3 - 10080 x96
           >= -10080
 c9_2:     y0,1,2 + y2,3,2 + y4,5,2 + y6,7,2 + y1,2,2 + y3,4,2 + y5,6,2 - f0,3
           - f1,3 - f2,3 - f3,3 - f4,3 - f5,3 - f6,3 - f7,3  = 0
 c10_2:    - y0,1,1 + y0,1,2 - y2,3,1 + y2,3,2 - y4,5,1 + y4,5,2 - y6,7,1
           + y6,7,2 - y1,2,1 - y3,4,1 - y5,6,1 + y1,2,2 + y3,4,2 + y5,6,2 <= 0
 c9_1:     y0,1,1 + y2,3,1 + y4,5,1 + y6,7,1 + y1,2,1 + y3,4,1 + y5,6,1 - f0,2
           - f1,2 - f2,2 - f3,2 - f4,2 - f5,2 - f6,2 - f7,2 - f0,3 - f1,3
           - f2,3 - f3,3 - f4,3 - f5,3 - f6,3 - f7,3  = 0
 c10_1:    - y0,1,0 + y0,1,1 - y2,3,0 + y2,3,1 - y4,5,0 + y4,5,1 - y6,7,0
           + y6,7,1 - y1,2,0 - y3,4,0 - y5,6,0 + y1,2,1 + y3,4,1 + y5,6,1 <= 0
 c19_0:    y0,1,0 + y2,3,0 + y4,5,0 + y6,7,0 + y1,2,0 + y3,4,0 + y5,6,0 - f0,1
           - f1,1 - f2,1 - f3,1 - f4,1 - f5,1 - f6,1 - f7,1 - f0,2 - f1,2
           - f2,2 - f3,2 - f4,2 - f5,2 - f6,2 - f7,2 - f0,3 - f1,3 - f2,3
           - f3,3 - f4,3 - f5,3 - f6,3 - f7,3  = 0
 c11:      y0,1,0 + y0,1,1 + y0,1,2 + y2,3,0 + y2,3,1 + y2,3,2 + y4,5,0
           + y4,5,1 + y4,5,2 + y6,7,0 + y6,7,1 + y6,7,2 + y1,2,0 + y3,4,0
           + y5,6,0 + y1,2,1 + y3,4,1 + y5,6,1 + y1,2,2 + y3,4,2 + y5,6,2 >= 2
 c12:      f0,0 - s1 + 2 f1,0 - 2 s2 + 3 f2,0 - 3 s3 + 4 f3,0 - 4 s4 + 5 f4,0
           - 5 s5 + 6 f5,0 - 6 s6 + 7 f6,0 - 7 s7 + f0,1 + 2 f1,1 + 3 f2,1
           + 4 f3,1 + 5 f4,1 + 6 f5,1 + 7 f6,1 + f0,2 + 2 f1,2 + 3 f2,2
           + 4 f3,2 + 5 f4,2 + 6 f5,2 + 7 f6,2 + f0,3 + 2 f1,3 + 3 f2,3
           + 4 f3,3 + 5 f4,3 + 6 f5,3 + 7 f6,3  = 0
 c13_0:    y0,1,0 + y0,1,1 + y0,1,2 + x0,1,0 + x0,1,1 + x0,1,2 + x0,1,3 <= 1
 c14_0:    <= 1
 c13_1:    x1,2,0 + x1,2,1 + x1,2,2 + x1,2,3 + y1,2,0 + y1,2,1 + y1,2,2 <= 1
 c14_1:    y0,1,0 + y0,1,1 + y0,1,2 + x0,1,0 + x0,1,1 + x0,1,2 + x0,1,3 <= 1
 c13_2:    y2,3,0 + y2,3,1 + y2,3,2 + x2,3,0 + x2,3,1 + x2,3,2 + x2,3,3 <= 1
 c14_2:    x1,2,0 + x1,2,1 + x1,2,2 + x1,2,3 + y1,2,0 + y1,2,1 + y1,2,2 <= 1
 c13_3:    x3,4,0 + x3,4,1 + x3,4,2 + x3,4,3 + y3,4,0 + y3,4,1 + y3,4,2 <= 1
 c14_3:    y2,3,0 + y2,3,1 + y2,3,2 + x2,3,0 + x2,3,1 + x2,3,2 + x2,3,3 <= 1
 c13_4:    y4,5,0 + y4,5,1 + y4,5,2 + x4,5,0 + x4,5,1 + x4,5,2 + x4,5,3 <= 1
 c14_4:    x3,4,0 + x3,4,1 + x3,4,2 + x3,4,3 + y3,4,0 + y3,4,1 + y3,4,2 <= 1
 c13_5:    x5,6,0 + x5,6,1 + x5,6,2 + x5,6,3 + y5,6,0 + y5,6,1 + y5,6,2 <= 1
 c14_5:    y4,5,0 + y4,5,1 + y4,5,2 + x4,5,0 + x4,5,1 + x4,5,2 + x4,5,3 <= 1
 c13_6:    y6,7,0 + y6,7,1 + y6,7,2 + x6,7,0 + x6,7,1 + x6,7,2 + x6,7,3 <= 1
 c14_6:    x5,6,0 + x5,6,1 + x5,6,2 + x5,6,3 + y5,6,0 + y5,6,1 + y5,6,2 <= 1
 c13_7:    <= 1
 c14_7:    y6,7,0 + y6,7,1 + y6,7,2 + x6,7,0 + x6,7,1 + x6,7,2 + x6,7,3 <= 1
Bounds
 0 <= y0,1,0 <= 1
 0 <= y0,1,1 <= 1
 0 <= y0,1,2 <= 1
 0 <= x1,2,0 <= 1
 0 <= x1,2,1 <= 1
 0 <= x1,2,2 <= 1
 0 <= x1,2,3 <= 1
 0 <= y2,3,0 <= 1
 0 <= y2,3,1 <= 1
 0 <= y2,3,2 <= 1
 0 <= x3,4,0 <= 1
 0 <= x3,4,1 <= 1
 0 <= x3,4,2 <= 1
 0 <= x3,4,3 <= 1
 0 <= y4,5,0 <= 1
 0 <= y4,5,1 <= 1
 0 <= y4,5,2 <= 1
 0 <= x5,6,0 <= 1
 0 <= x5,6,1 <= 1
 0 <= x5,6,2 <= 1
 0 <= x5,6,3 <= 1
 0 <= y6,7,0 <= 1
 0 <= y6,7,1 <= 1
 0 <= y6,7,2 <= 1
 0 <= s0 <= 1
 0 <= f0,0 <= 1
 0 <= x0,1,0 <= 1
 0 <= s1 <= 1
 0 <= f1,0 <= 1
 0 <= y1,2,0 <= 1
 0 <= s2 <= 1
 0 <= f2,0 <= 1
 0 <= x2,3,0 <= 1
 0 <= s3 <= 1
 0 <= f3,0 <= 1
 0 <= y3,4,0 <= 1
 0 <= s4 <= 1
 0 <= f4,0 <= 1
 0 <= x4,5,0 <= 1
 0 <= s5 <= 1
 0 <= f5,0 <= 1
 0 <= y5,6,0 <= 1
 0 <= s6 <= 1
 0 <= f6,0 <= 1
 0 <= x6,7,0 <= 1
 0 <= s7 <= 1
 0 <= f7,0 <= 1
 0 <= f0,1 <= 1
 0 <= x0,1,1 <= 1
 0 <= f1,1 <= 1
 0 <= y1,2,1 <= 1
 0 <= f2,1 <= 1
 0 <= x2,3,1 <= 1
 0 <= f3,1 <= 1
 0 <= y3,4,1 <= 1
 0 <= f4,1 <= 1
 0 <= x4,5,1 <= 1
 0 <= f5,1 <= 1
 0 <= y5,6,1 <= 1
 0 <= f6,1 <= 1
 0 <= x6,7,1 <= 1
 0 <= f7,1 <= 1
 0 <= f0,2 <= 1
 0 <= x0,1,2 <= 1
 0 <= f1,2 <= 1
 0 <= y1,2,2 <= 1
 0 <= f2,2 <= 1
 0 <= x2,3,2 <= 1
 0 <= f3,2 <= 1
 0 <= y3,4,2 <= 1
 0 <= f4,2 <= 1
 0 <= x4,5,2 <= 1
 0 <= f5,2 <= 1
 0 <= y5,6,2 <= 1
 0 <= f6,2 <= 1
 0 <= x6,7,2 <= 1
 0 <= f7,2 <= 1
 0 <= f0,3 <= 1
 0 <= x0,1,3 <= 1
 0 <= f1,3 <= 1
 0 <= f2,3 <= 1
 0 <= x2,3,3 <= 1
 0 <= f3,3 <= 1
 0 <= f4,3 <= 1
 0 <= x4,5,3 <= 1
 0 <= f5,3 <= 1
 0 <= f6,3 <= 1
 0 <= x6,7,3 <= 1
 0 <= f7,3 <= 1
 0 <= x90 <= 1
 0 <= x91 <= 1
 0 <= x92 <= 1
 0 <= x93 <= 1
 0 <= x94 <= 1
 0 <= x95 <= 1
 0 <= x96 <= 1
Binaries
 y0,1,0  y0,1,1  y0,1,2  x1,2,0  x1,2,1  x1,2,2  x1,2,3  y2,3,0  y2,3,1 
 y2,3,2  x3,4,0  x3,4,1  x3,4,2  x3,4,3  y4,5,0  y4,5,1  y4,5,2  x5,6,0 
 x5,6,1  x5,6,2  x5,6,3  y6,7,0  y6,7,1  y6,7,2  s0  f0,0  x0,1,0  s1  f1,0 
 y1,2,0  s2  f2,0  x2,3,0  s3  f3,0  y3,4,0  s4  f4,0  x4,5,0  s5  f5,0 
 y5,6,0  s6  f6,0  x6,7,0  s7  f7,0  f0,1  x0,1,1  f1,1  y1,2,1  f2,1  x2,3,1 
 f3,1  y3,4,1  f4,1  x4,5,1  f5,1  y5,6,1  f6,1  x6,7,1  f7,1  f0,2  x0,1,2 
 f1,2  y1,2,2  f2,2  x2,3,2  f3,2  y3,4,2  f4,2  x4,5,2  f5,2  y5,6,2  f6,2 
 x6,7,2  f7,2  f0,3  x0,1,3  f1,3  f2,3  x2,3,3  f3,3  f4,3  x4,5,3  f5,3 
 f6,3  x6,7,3  f7,3  x90  x91  x92  x93  x94  x95  x96 
End
